param dimW := 10;
param dimH := 10;

param W :=
1 0.0
2 1.0
3 2.0
4 3.0
5 4.0
6 5.0
7 6.0
8 7.0
9 8.0
10 9.0;

param H :=
1 0.0
2 1.0
3 2.0
4 3.0
5 4.0
6 5.0
7 6.0
8 7.0
9 8.0
10 9.0;

param n := 10;

param scale := 0.8;

set S := "S2C" "S2CPro";

param I :=
"S2C" 0.305891
"S2CPro" 0.755891;

param MC := 
"S2C" 28.45
"S2CPro" 34.31;

param RMAX :=
"S2C" 1.2
"S2CPro" 3.2;

param X :=
1 1
2 1
3 2
4 2
5 4
6 5
7 5
8 6
9 7
10 9;

param Y :=
1 7
2 8
3 4
4 8
5 4
6 4
7 5
8 6
9 4
10 6;